0 3776
1 3766
2 3746
3 3728
4 3704
5 3698
7 3641
10 3634
26 3621
38 3619
43 3580
48 3567
51 3550
54 3518
67 3474
68 3469
70 3464
76 3462
78 3431
86 3423
103 3387
105 3378
157 3373
159 3345
209 3338
224 3334
250 3333
251 3332
285 3328
364 3327
392 3326
407 3321
425 3305
440 3299
453 3297
620 3294
682 3291
696 3277
723 3273
733 3270
740 3235
741 3229
960 3228
976 3223
1014 3204
1027 3199
1905 3188
1960 3185
2536 3183
2667 3180
2693 3174
3094 3169
3253 3168
3333 3160
3616 3157
3795 3155
3862 3150
4132 3145
4143 3141
4956 3140
4971 3136
5417 3129
